(set-logic QF_FP)
(set-option :produce-models true)
(set-info :source |Random FP created by PyMPF|)
(set-info :category random)
(set-info :status sat)
(declare-const x Float32)
(assert (= x ((_ to_fp 8 24) #x805231A3)))
(declare-const y Float32)
(assert (= y ((_ to_fp 8 24) #x00800000)))
(declare-const z Float32)
(assert (= z (fp #b0 #b10001101 #b11111111100110100110111)))
(declare-const result Float32)
(assert (= result (fp.fma RTP x y z)))
(assert (= result (fp #b0 #b10001101 #b11111111100110100110111)))
(check-sat)
(exit)
